bound = 389;
n = 8;
p = 4;
num_edges = 56;
E = array2d(1..num_edges, 1..2, [
1,2
,1,3
,1,4
,1,5
,1,6
,1,7
,1,8
,2,1
,2,3
,2,4
,2,5
,2,6
,2,7
,2,8
,3,1
,3,2
,3,4
,3,5
,3,6
,3,7
,3,8
,4,1
,4,2
,4,3
,4,5
,4,6
,4,7
,4,8
,5,1
,5,2
,5,3
,5,4
,5,6
,5,7
,5,8
,6,1
,6,2
,6,3
,6,4
,6,5
,6,7
,6,8
,7,1
,7,2
,7,3
,7,4
,7,5
,7,6
,7,8
,8,1
,8,2
,8,3
,8,4
,8,5
,8,6
,8,7
]);
c=[
37,
12,
57,
6,
35,
15,
63,
37,
33,
58,
31,
5,
49,
62,
12,
33,
67,
10,
33,
27,
72,
57,
58,
67,
57,
53,
52,
6,
6,
31,
10,
57,
29,
21,
62,
35,
5,
33,
53,
29,
46,
56,
15,
49,
27,
52,
21,
46,
58,
63,
62,
72,
6,
62,
56,
58];
